\Problem name: 

Minimize
obj: X(0,1) + 2 X(0,2) + 3 X(0,3) + 4 X(0,4) + X(1,1) + 2 X(1,2) + 3 X(1,3) + 4 X(1,4) + X(2,1) + 2 X(2,2)
 + 3 X(2,3) + 4 X(2,4) + X(3,1) + 2 X(3,2) + 3 X(3,3) + 4 X(3,4) + X(4,1) + 2 X(4,2) + 3 X(4,3) + 4 X(4,4)
 + X(5,1) + 2 X(5,2) + 3 X(5,3) + 4 X(5,4) + X(6,1) + 2 X(6,2) + 3 X(6,3) + 4 X(6,4) + X(7,1) + 2 X(7,2)
 + 3 X(7,3) + 4 X(7,4)
Subject To
LimCreditos_0:  X(0,0) + 0.50000 X(1,0) + X(2,0) + X(3,0) + X(4,0) <= 32
LimCreditos_1:  X(0,1) + 0.50000 X(1,1) + X(2,1) + X(3,1) + X(4,1) <= 32
LimCreditos_2:  X(0,2) + 0.50000 X(1,2) + X(2,2) + X(3,2) + X(4,2) <= 32
LimCreditos_3:  X(0,3) + 0.50000 X(1,3) + X(2,3) + X(3,3) + X(4,3) <= 32
LimCreditos_4:  X(0,4) + 0.50000 X(1,4) + X(2,4) + X(3,4) + X(4,4) <= 32
Obrigatorias_0:  X(0,0) + X(0,1) + X(0,2) + X(0,3) + X(0,4) = 32
Obrigatorias_1:  X(1,0) + X(1,1) + X(1,2) + X(1,3) + X(1,4) = 32
Obrigatorias_2:  X(2,0) + X(2,1) + X(2,2) + X(2,3) + X(2,4) = 32
Obrigatorias_3:  X(3,0) + X(3,1) + X(3,2) + X(3,3) + X(3,4) = 32
Obrigatorias_4:  X(4,0) + X(4,1) + X(4,2) + X(4,3) + X(4,4) = 32
Obrigatorias_5:  X(5,0) + X(5,1) + X(5,2) + X(5,3) + X(5,4) = 32
Obrigatorias_6:  X(6,0) + X(6,1) + X(6,2) + X(6,3) + X(6,4) = 32
Obrigatorias_7:  X(7,0) + X(7,1) + X(7,2) + X(7,3) + X(7,4) = 32
MinOptativas_:  X(0,0) + X(0,1) + X(0,2) + X(0,3) + X(0,4) + 0.50000 X(1,0) + 0.50000 X(1,1) + 0.50000 X(1,2) + 0.50000 X(1,3) + 0.50000 X(1,4)
 >= 2
Bounds
 0 <= X(0,0) <= 1
 0 <= X(0,1) <= 1
 0 <= X(0,2) <= 1
 0 <= X(0,3) <= 1
 0 <= X(0,4) <= 1
 0 <= X(1,0) <= 1
 0 <= X(1,1) <= 1
 0 <= X(1,2) <= 1
 0 <= X(1,3) <= 1
 0 <= X(1,4) <= 1
 0 <= X(2,0) <= 1
 0 <= X(2,1) <= 1
 0 <= X(2,2) <= 1
 0 <= X(2,3) <= 1
 0 <= X(2,4) <= 1
 0 <= X(3,0) <= 1
 0 <= X(3,1) <= 1
 0 <= X(3,2) <= 1
 0 <= X(3,3) <= 1
 0 <= X(3,4) <= 1
 0 <= X(4,0) <= 1
 0 <= X(4,1) <= 1
 0 <= X(4,2) <= 1
 0 <= X(4,3) <= 1
 0 <= X(4,4) <= 1
 0 <= X(5,0) <= 1
 0 <= X(5,1) <= 1
 0 <= X(5,2) <= 1
 0 <= X(5,3) <= 1
 0 <= X(5,4) <= 1
 0 <= X(6,0) <= 1
 0 <= X(6,1) <= 1
 0 <= X(6,2) <= 1
 0 <= X(6,3) <= 1
 0 <= X(6,4) <= 1
 0 <= X(7,0) <= 1
 0 <= X(7,1) <= 1
 0 <= X(7,2) <= 1
 0 <= X(7,3) <= 1
 0 <= X(7,4) <= 1
Integers
X(0,0) X(0,1) X(0,2) X(0,3) X(0,4) X(1,0) X(1,1) X(1,2) X(1,3) X(1,4) 
X(2,0) X(2,1) X(2,2) X(2,3) X(2,4) X(3,0) X(3,1) X(3,2) X(3,3) X(3,4) 
X(4,0) X(4,1) X(4,2) X(4,3) X(4,4) X(5,0) X(5,1) X(5,2) X(5,3) X(5,4) 
X(6,0) X(6,1) X(6,2) X(6,3) X(6,4) X(7,0) X(7,1) X(7,2) X(7,3) X(7,4) 
End
